11238379851
11238379851
11238379851
11238379851
11238379851
11238379851
11238379851
11238379851
11238379851
11238379851
1573327186
1573327186
1573327186
1573327186
1573327186
1573327186
1573327186
1573327186
1573327186
1573327186
1536831283
1536861085
1536928063
1536930481
1537281760
1536827840
1536928063
1536827840
1536827840
1536827840
1857561196
1857637128
1857552652
1857741555
1857637050
1857637050
1857550172
1857765032
1857637050
1857550172
1558838421
1558838421
1558991858
1558838421
1558838421
1558838421
1558838421
1558838421
1558838421
1558838421
1622599136
1622578648
1622615185
1622593515
1622579007
1622788963
1622593515
1622631551
1622631551
1622715894
